job_count = 20 ;
duration = [|2, 13, 17, 4|3, 9, 16, 12|16, 18, 10, 11|2, 21, 6, 5|20, 2, 6, 2|13, 13, 6, 5|6, 20, 9, 7|14, 16, 3, 8|16, 6, 7, 13|15, 19, 9, 7|7, 9, 10, 12|2, 17, 4, 11|10, 12, 16, 14|4, 14, 13, 7|22, 11, 14, 13|22, 12, 10, 6|23, 9, 17, 12|9, 11, 6, 9|7, 4, 13, 4|24, 10, 5, 13|] ;
machine_count = 4 ;
cost = [|19, 27, 33, 34|26, 33, 25, 31|18, 35, 31, 32|21, 27, 30, 37|27, 26, 39, 35|22, 29, 29, 28|29, 18, 38, 27|30, 33, 34, 48|19, 25, 43, 32|18, 26, 32, 39|23, 34, 37, 46|27, 23, 35, 49|16, 27, 28, 49|29, 33, 23, 51|19, 31, 37, 35|23, 26, 43, 44|24, 19, 42, 45|26, 25, 33, 51|16, 32, 29, 49|28, 21, 32, 44|] ;
deadline = [33, 33, 33, 33, 33, 33, 33, 33, 33, 33, 33, 33, 33, 33, 33, 33, 33, 33, 33, 33] ;
release = [0, 0, 0, 0, 0, 0, 0, 0, 0, 0, 0, 0, 0, 0, 0, 0, 0, 0, 0, 0] ;
resource = [|4, 4, 4, 4|8, 8, 8, 8|9, 9, 9, 9|3, 3, 3, 3|5, 5, 5, 5|3, 3, 3, 3|8, 8, 8, 8|4, 4, 4, 4|8, 8, 8, 8|7, 7, 7, 7|4, 4, 4, 4|8, 8, 8, 8|2, 2, 2, 2|7, 7, 7, 7|3, 3, 3, 3|3, 3, 3, 3|8, 8, 8, 8|8, 8, 8, 8|1, 1, 1, 1|7, 7, 7, 7|] ;
capacities = [10, 10, 10, 10] ;
